presolving:
(round 1, fast)       5650 del vars, 15035 del conss, 0 add conss, 7500 chg bounds, 0 chg sides, 0 chg coeffs, 0 upgd conss, 0 impls, 1950 clqs
(round 2, fast)       7525 del vars, 16910 del conss, 0 add conss, 7500 chg bounds, 0 chg sides, 0 chg coeffs, 0 upgd conss, 0 impls, 75 clqs
(round 3, fast)       9400 del vars, 16910 del conss, 0 add conss, 7500 chg bounds, 0 chg sides, 0 chg coeffs, 0 upgd conss, 0 impls, 75 clqs
(round 4, exhaustive) 9400 del vars, 16910 del conss, 0 add conss, 7500 chg bounds, 0 chg sides, 0 chg coeffs, 1950 upgd conss, 0 impls, 75 clqs
   (0.5s) probing: 51/1900 (2.7%) - 0 fixings, 0 aggregations, 0 implications, 0 bound changes
   (0.5s) probing aborted: 50/50 successive totally useless probings
   (0.5s) symmetry computation started: requiring (bin +, int -, cont -), (fixed: bin -, int +, cont +)
   (0.5s) no symmetry present
   (0.5s) symmetry computation started: requiring (bin +, int +, cont +), (fixed: bin -, int -, cont -)
   (0.5s) no symmetry present
presolving (5 rounds: 5 fast, 2 medium, 2 exhaustive):
 9400 deleted vars, 16910 deleted constraints, 0 added constraints, 7500 tightened bounds, 0 added holes, 0 changed sides, 0 changed coefficients
 0 implications, 75 cliques
presolved problem has 5650 variables (1900 bin, 1875 int, 0 impl, 1875 cont) and 1990 constraints
   1875 constraints of type <varbound>
     75 constraints of type <setppc>
     40 constraints of type <nonlinear>
Presolving Time: 0.50

 time | node  | left  |LP iter|LP it/n|mem/heur|mdpt |vars |cons |rows |cuts |sepa|confs|strbr|  dualbound   | primalbound  |  gap   | compl. 
p 2.5s|     1 |     0 |     0 |     - | vbounds|   0 |8690 |1990 |1990 |   0 |  0 |   0 |   0 | 5.541505e+06 | 5.987953e+06 |   8.06%| unknown
p 3.3s|     1 |     0 |     0 |     - | vbounds|   0 |8690 |1990 |1990 |   0 |  0 |   0 |   0 | 5.541505e+06 | 5.904487e+06 |   6.55%| unknown
  4.7s|     1 |     0 |  1950 |     - |   104M |   0 |8690 |1990 |1990 |   0 |  0 |   0 |   0 | 5.750701e+06 | 5.904487e+06 |   2.67%| unknown
  4.7s|     1 |     0 |  2063 |     - |   104M |   0 |8690 |1990 |2109 | 119 |  1 |   0 |   0 | 5.751201e+06 | 5.904487e+06 |   2.67%| unknown
  4.7s|     1 |     0 |  2108 |     - |   106M |   0 |8690 |1990 |2155 | 165 |  2 |   0 |   0 | 5.751202e+06 | 5.904487e+06 |   2.67%| unknown
  4.8s|     1 |     0 |  2153 |     - |   106M |   0 |8690 |1990 |2204 | 214 |  3 |   0 |   0 | 5.751211e+06 | 5.904487e+06 |   2.67%| unknown
  4.8s|     1 |     0 |  2204 |     - |   106M |   0 |8690 |1990 |2254 | 264 |  4 |   0 |   0 | 5.751511e+06 | 5.904487e+06 |   2.66%| unknown
  4.8s|     1 |     0 |  2247 |     - |   107M |   0 |8690 |1990 |2297 | 307 |  5 |   0 |   0 | 5.751522e+06 | 5.904487e+06 |   2.66%| unknown
  4.8s|     1 |     0 |  2313 |     - |   107M |   0 |8690 |1990 |2362 | 372 |  6 |   0 |   0 | 5.752288e+06 | 5.904487e+06 |   2.65%| unknown
  4.9s|     1 |     0 |  2357 |     - |   107M |   0 |8690 |1990 |2406 | 416 |  7 |   0 |   0 | 5.752305e+06 | 5.904487e+06 |   2.65%| unknown
  4.9s|     1 |     0 |  2401 |     - |   108M |   0 |8690 |1990 |2449 | 459 |  8 |   0 |   0 | 5.752347e+06 | 5.904487e+06 |   2.64%| unknown
  4.9s|     1 |     0 |  2434 |     - |   108M |   0 |8690 |1990 |2481 | 491 |  9 |   0 |   0 | 5.752359e+06 | 5.904487e+06 |   2.64%| unknown
  4.9s|     1 |     0 |  2476 |     - |   108M |   0 |8690 |1990 |2512 | 522 | 10 |   0 |   0 | 5.752410e+06 | 5.904487e+06 |   2.64%| unknown
  5.0s|     1 |     0 |  2542 |     - |   109M |   0 |8690 |1990 |2512 | 557 | 11 |   0 |   0 | 5.752514e+06 | 5.904487e+06 |   2.64%| unknown
  5.1s|     1 |     0 |  2596 |     - |   109M |   0 |8690 |1990 |2550 | 595 | 12 |   0 |   0 | 5.752555e+06 | 5.904487e+06 |   2.64%| unknown
 time | node  | left  |LP iter|LP it/n|mem/heur|mdpt |vars |cons |rows |cuts |sepa|confs|strbr|  dualbound   | primalbound  |  gap   | compl. 
  5.2s|     1 |     0 |  2681 |     - |   109M |   0 |8690 |1990 |2595 | 640 | 13 |   0 |   0 | 5.752631e+06 | 5.904487e+06 |   2.64%| unknown
  5.3s|     1 |     0 |  2751 |     - |   109M |   0 |8690 |1990 |2631 | 676 | 14 |   0 |   0 | 5.752695e+06 | 5.904487e+06 |   2.64%| unknown
  5.5s|     1 |     0 |  2899 |     - |   109M |   0 |8690 |1990 |2670 | 715 | 15 |   0 |   0 | 5.752820e+06 | 5.904487e+06 |   2.64%| unknown
  5.7s|     1 |     0 |  3033 |     - |   111M |   0 |8690 |1990 |2704 | 749 | 16 |   0 |   0 | 5.752902e+06 | 5.904487e+06 |   2.63%| unknown
  5.8s|     1 |     0 |  3160 |     - |   111M |   0 |8690 |1990 |2724 | 782 | 17 |   0 |   0 | 5.753005e+06 | 5.904487e+06 |   2.63%| unknown
  6.0s|     1 |     0 |  3277 |     - |   111M |   0 |8690 |1990 |2764 | 822 | 18 |   0 |   0 | 5.753141e+06 | 5.904487e+06 |   2.63%| unknown
  6.3s|     1 |     0 |  3393 |     - |   112M |   0 |8690 |1990 |2805 | 863 | 19 |   0 |   0 | 5.753222e+06 | 5.904487e+06 |   2.63%| unknown
  6.5s|     1 |     0 |  3509 |     - |   112M |   0 |8690 |1990 |2849 | 907 | 20 |   0 |   0 | 5.753304e+06 | 5.904487e+06 |   2.63%| unknown
  6.7s|     1 |     0 |  3717 |     - |   112M |   0 |8690 |1990 |2884 | 942 | 21 |   0 |   0 | 5.753421e+06 | 5.904487e+06 |   2.63%| unknown
  6.9s|     1 |     0 |  3956 |     - |   112M |   0 |8690 |1990 |2918 | 976 | 22 |   0 |   0 | 5.753492e+06 | 5.904487e+06 |   2.62%| unknown
  7.2s|     1 |     0 |  4104 |     - |   112M |   0 |8690 |1990 |2934 |1012 | 23 |   0 |   0 | 5.753567e+06 | 5.904487e+06 |   2.62%| unknown
r 7.3s|     1 |     0 |  4104 |     - |shifting|   0 |8690 |1990 |2934 |1012 | 23 |   0 |   0 | 5.753567e+06 | 5.897394e+06 |   2.50%| unknown
  7.4s|     1 |     0 |  4183 |     - |   112M |   0 |8690 |1990 |2966 |1044 | 24 |   0 |   0 | 5.753599e+06 | 5.897394e+06 |   2.50%| unknown
r 7.4s|     1 |     0 |  4183 |     - |shifting|   0 |8690 |1990 |2966 |1044 | 24 |   0 |   0 | 5.753599e+06 | 5.879827e+06 |   2.19%| unknown
  7.5s|     1 |     0 |  4345 |     - |   112M |   0 |8690 |1990 |2992 |1070 | 25 |   0 |   0 | 5.753664e+06 | 5.879827e+06 |   2.19%| unknown
 time | node  | left  |LP iter|LP it/n|mem/heur|mdpt |vars |cons |rows |cuts |sepa|confs|strbr|  dualbound   | primalbound  |  gap   | compl. 
r 7.5s|     1 |     0 |  4345 |     - |shifting|   0 |8690 |1990 |2992 |1070 | 25 |   0 |   0 | 5.753664e+06 | 5.879697e+06 |   2.19%| unknown
  7.6s|     1 |     0 |  4439 |     - |   113M |   0 |8690 |1990 |3022 |1100 | 26 |   0 |   0 | 5.753698e+06 | 5.879697e+06 |   2.19%| unknown
r 7.8s|     1 |     0 |  4439 |     - |shifting|   0 |8690 |1990 |3022 |1100 | 26 |   0 |   0 | 5.753698e+06 | 5.879604e+06 |   2.19%| unknown
  7.9s|     1 |     0 |  4553 |     - |   114M |   0 |8690 |1990 |3050 |1128 | 27 |   0 |   0 | 5.753739e+06 | 5.879604e+06 |   2.19%| unknown
r 8.1s|     1 |     0 |  4553 |     - |shifting|   0 |8690 |1990 |3050 |1128 | 27 |   0 |   0 | 5.753739e+06 | 5.872761e+06 |   2.07%| unknown
  8.2s|     1 |     0 |  4765 |     - |   114M |   0 |8690 |1990 |3075 |1153 | 28 |   0 |   0 | 5.753776e+06 | 5.872761e+06 |   2.07%| unknown
  8.3s|     1 |     0 |  4940 |     - |   114M |   0 |8690 |1990 |3069 |1182 | 29 |   0 |   0 | 5.753822e+06 | 5.872761e+06 |   2.07%| unknown
r 8.6s|     1 |     0 |  4940 |     - |shifting|   0 |8690 |1990 |3069 |1182 | 29 |   0 |   0 | 5.753822e+06 | 5.871312e+06 |   2.04%| unknown
  8.7s|     1 |     0 |  5100 |     - |   114M |   0 |8690 |1990 |3096 |1209 | 30 |   0 |   0 | 5.753870e+06 | 5.871312e+06 |   2.04%| unknown
r 8.9s|     1 |     0 |  5100 |     - |shifting|   0 |8690 |1990 |3096 |1209 | 30 |   0 |   0 | 5.753870e+06 | 5.864773e+06 |   1.93%| unknown
  8.9s|     1 |     0 |  5259 |     - |   115M |   0 |8690 |1990 |3124 |1237 | 31 |   0 |   0 | 5.753897e+06 | 5.864773e+06 |   1.93%| unknown
r 9.1s|     1 |     0 |  5259 |     - |shifting|   0 |8690 |1990 |3124 |1237 | 31 |   0 |   0 | 5.753897e+06 | 5.863071e+06 |   1.90%| unknown
  9.1s|     1 |     0 |  5379 |     - |   115M |   0 |8690 |1990 |3146 |1259 | 32 |   0 |   0 | 5.753917e+06 | 5.863071e+06 |   1.90%| unknown
r 9.3s|     1 |     0 |  5379 |     - |shifting|   0 |8690 |1990 |3146 |1259 | 32 |   0 |   0 | 5.753917e+06 | 5.859631e+06 |   1.84%| unknown
  9.4s|     1 |     0 |  5492 |     - |   115M |   0 |8690 |1990 |3171 |1284 | 33 |   0 |   0 | 5.753944e+06 | 5.859631e+06 |   1.84%| unknown
 time | node  | left  |LP iter|LP it/n|mem/heur|mdpt |vars |cons |rows |cuts |sepa|confs|strbr|  dualbound   | primalbound  |  gap   | compl. 
r 9.5s|     1 |     0 |  5492 |     - |shifting|   0 |8690 |1990 |3171 |1284 | 33 |   0 |   0 | 5.753944e+06 | 5.856368e+06 |   1.78%| unknown
  9.6s|     1 |     0 |  5567 |     - |   115M |   0 |8690 |1990 |3199 |1312 | 34 |   0 |   0 | 5.753973e+06 | 5.856368e+06 |   1.78%| unknown
r 9.9s|     1 |     0 |  5567 |     - |shifting|   0 |8690 |1990 |3199 |1312 | 34 |   0 |   0 | 5.753973e+06 | 5.853282e+06 |   1.73%| unknown
 10.0s|     1 |     0 |  5709 |     - |   118M |   0 |8690 |1990 |3160 |1339 | 35 |   0 |   0 | 5.754013e+06 | 5.853282e+06 |   1.73%| unknown
r10.3s|     1 |     0 |  5709 |     - |shifting|   0 |8690 |1990 |3160 |1339 | 35 |   0 |   0 | 5.754013e+06 | 5.848089e+06 |   1.63%| unknown
 10.3s|     1 |     0 |  5866 |     - |   118M |   0 |8690 |1990 |3188 |1367 | 36 |   0 |   0 | 5.754070e+06 | 5.848089e+06 |   1.63%| unknown
r10.5s|     1 |     0 |  5866 |     - |shifting|   0 |8690 |1990 |3188 |1367 | 36 |   0 |   0 | 5.754070e+06 | 5.847252e+06 |   1.62%| unknown
 10.6s|     1 |     0 |  5977 |     - |   118M |   0 |8690 |1990 |3217 |1396 | 37 |   0 |   0 | 5.754101e+06 | 5.847252e+06 |   1.62%| unknown
 10.7s|     1 |     0 |  6116 |     - |   118M |   0 |8690 |1990 |3236 |1415 | 38 |   0 |   0 | 5.754149e+06 | 5.847252e+06 |   1.62%| unknown
r10.9s|     1 |     0 |  6116 |     - |shifting|   0 |8690 |1990 |3236 |1415 | 38 |   0 |   0 | 5.754149e+06 | 5.843737e+06 |   1.56%| unknown
 11.0s|     1 |     0 |  6193 |     - |   118M |   0 |8690 |1990 |3256 |1435 | 39 |   0 |   0 | 5.754166e+06 | 5.843737e+06 |   1.56%| unknown
 11.1s|     1 |     0 |  6285 |     - |   118M |   0 |8690 |1990 |3273 |1452 | 40 |   0 |   0 | 5.754180e+06 | 5.843737e+06 |   1.56%| unknown
 11.2s|     1 |     0 |  6425 |     - |   118M |   0 |8690 |1990 |3229 |1470 | 41 |   0 |   0 | 5.754229e+06 | 5.843737e+06 |   1.56%| unknown
r11.4s|     1 |     0 |  6425 |     - |shifting|   0 |8690 |1990 |3229 |1470 | 41 |   0 |   0 | 5.754229e+06 | 5.843524e+06 |   1.55%| unknown
 11.5s|     1 |     0 |  6558 |     - |   118M |   0 |8690 |1990 |3242 |1483 | 42 |   0 |   0 | 5.754264e+06 | 5.843524e+06 |   1.55%| unknown
 time | node  | left  |LP iter|LP it/n|mem/heur|mdpt |vars |cons |rows |cuts |sepa|confs|strbr|  dualbound   | primalbound  |  gap   | compl. 
r11.7s|     1 |     0 |  6558 |     - |shifting|   0 |8690 |1990 |3242 |1483 | 42 |   0 |   0 | 5.754264e+06 | 5.837419e+06 |   1.45%| unknown
 11.8s|     1 |     0 |  6636 |     - |   118M |   0 |8690 |1990 |3261 |1502 | 43 |   0 |   0 | 5.754277e+06 | 5.837419e+06 |   1.44%| unknown
 12.0s|     1 |     0 |  6813 |     - |   118M |   0 |8690 |1990 |3280 |1521 | 44 |   0 |   0 | 5.754308e+06 | 5.837419e+06 |   1.44%| unknown
 12.1s|     1 |     0 |  6855 |     - |   118M |   0 |8690 |1990 |3288 |1529 | 45 |   0 |   0 | 5.754315e+06 | 5.837419e+06 |   1.44%| unknown
 12.4s|     1 |     0 |  6972 |     - |   118M |   0 |8690 |1990 |3303 |1544 | 46 |   0 |   0 | 5.754343e+06 | 5.837419e+06 |   1.44%| unknown
r12.6s|     1 |     0 |  6972 |     - |shifting|   0 |8690 |1990 |3303 |1544 | 46 |   0 |   0 | 5.754343e+06 | 5.835195e+06 |   1.41%| unknown
 12.6s|     1 |     0 |  7096 |     - |   118M |   0 |8690 |1990 |3215 |1559 | 47 |   0 |   0 | 5.754356e+06 | 5.835195e+06 |   1.40%| unknown
r12.8s|     1 |     0 |  7096 |     - |shifting|   0 |8690 |1990 |3215 |1559 | 47 |   0 |   0 | 5.754356e+06 | 5.834110e+06 |   1.39%| unknown
 12.9s|     1 |     0 |  7184 |     - |   119M |   0 |8690 |1990 |3228 |1572 | 48 |   0 |   0 | 5.754370e+06 | 5.834110e+06 |   1.39%| unknown
 13.0s|     1 |     0 |  7259 |     - |   120M |   0 |8690 |1990 |3243 |1587 | 49 |   0 |   0 | 5.754386e+06 | 5.834110e+06 |   1.39%| unknown
r13.2s|     1 |     0 |  7259 |     - |shifting|   0 |8690 |1990 |3243 |1587 | 49 |   0 |   0 | 5.754386e+06 | 5.828828e+06 |   1.29%| unknown
 13.2s|     1 |     0 |  7300 |     - |   120M |   0 |8690 |1990 |3250 |1594 | 50 |   0 |   0 | 5.754392e+06 | 5.828828e+06 |   1.29%| unknown
 13.4s|     1 |     0 |  7318 |     - |   120M |   0 |8690 |1990 |3257 |1601 | 51 |   0 |   0 | 5.754393e+06 | 5.828828e+06 |   1.29%| unknown
 13.7s|     1 |     0 |  7364 |     - |   120M |   0 |8690 |1990 |3270 |1614 | 52 |   0 |   0 | 5.754401e+06 | 5.828828e+06 |   1.29%| unknown
 13.9s|     1 |     0 |  7408 |     - |   120M |   0 |8690 |1990 |3213 |1620 | 53 |   0 |   0 | 5.754405e+06 | 5.828828e+06 |   1.29%| unknown
 time | node  | left  |LP iter|LP it/n|mem/heur|mdpt |vars |cons |rows |cuts |sepa|confs|strbr|  dualbound   | primalbound  |  gap   | compl. 
r14.0s|     1 |     0 |  7408 |     - |shifting|   0 |8690 |1990 |3213 |1620 | 53 |   0 |   0 | 5.754405e+06 | 5.822706e+06 |   1.19%| unknown
 14.0s|     1 |     0 |  7417 |     - |   120M |   0 |8690 |1990 |3217 |1624 | 54 |   0 |   0 | 5.754406e+06 | 5.822706e+06 |   1.19%| unknown
 14.2s|     1 |     0 |  7436 |     - |   120M |   0 |8690 |1990 |3226 |1633 | 55 |   0 |   0 | 5.754408e+06 | 5.822706e+06 |   1.19%| unknown
 14.3s|     1 |     0 |  7472 |     - |   120M |   0 |8690 |1990 |3237 |1644 | 56 |   0 |   0 | 5.754418e+06 | 5.822706e+06 |   1.19%| unknown
r14.5s|     1 |     0 |  7472 |     - |shifting|   0 |8690 |1990 |3237 |1644 | 56 |   0 |   0 | 5.754418e+06 | 5.810618e+06 |   0.98%| unknown
 14.5s|     1 |     0 |  7504 |     - |   120M |   0 |8690 |1990 |3241 |1648 | 57 |   0 |   0 | 5.754423e+06 | 5.810618e+06 |   0.98%| unknown
 14.7s|     1 |     0 |  7527 |     - |   120M |   0 |8690 |1990 |3247 |1654 | 58 |   0 |   0 | 5.754426e+06 | 5.810618e+06 |   0.98%| unknown
r14.8s|     1 |     0 |  7527 |     - |shifting|   0 |8690 |1990 |3247 |1654 | 58 |   0 |   0 | 5.754426e+06 | 5.804766e+06 |   0.87%| unknown
 14.9s|     1 |     0 |  7537 |     - |   120M |   0 |8690 |1990 |3174 |1656 | 59 |   0 |   0 | 5.754426e+06 | 5.804766e+06 |   0.87%| unknown
r15.0s|     1 |     0 |  7537 |     - |shifting|   0 |8690 |1990 |3174 |1656 | 59 |   0 |   0 | 5.754426e+06 | 5.796691e+06 |   0.73%| unknown
d20.2s|     1 |     0 | 11661 |     - |farkasdi|   0 |8690 |1990 |3174 |   0 | 59 |   0 |   0 | 5.754426e+06 | 5.754452e+06 |   0.00%| unknown
 20.3s|     1 |     0 | 11661 |     - |   122M |   0 |8690 |1990 |3174 |1656 | 59 |   0 |   0 | 5.754426e+06 | 5.754452e+06 |   0.00%| unknown
 20.3s|     1 |     0 | 11750 |     - |   122M |   0 |8690 |1990 |3174 |1656 | 59 |   0 |   0 | 5.754435e+06 | 5.754452e+06 |   0.00%| unknown
 20.3s|     1 |     0 | 11750 |     - |   122M |   0 |8690 |1990 |3174 |1656 | 59 |   0 |   0 | 5.754435e+06 | 5.754452e+06 |   0.00%| unknown
 20.4s|     1 |     0 | 11761 |     - |   122M |   0 |8690 |1990 |3151 |1667 | 60 |   0 |   0 | 5.754435e+06 | 5.754452e+06 |   0.00%| unknown
 time | node  | left  |LP iter|LP it/n|mem/heur|mdpt |vars |cons |rows |cuts |sepa|confs|strbr|  dualbound   | primalbound  |  gap   | compl. 
 20.4s|     1 |     0 | 11762 |     - |   122M |   0 |8690 |1990 |3152 |1668 | 61 |   0 |   0 | 5.754435e+06 | 5.754452e+06 |   0.00%| unknown
(run 1, node 1) restarting after 1353 global fixings of integer variables

(restart) converted 267 cuts from the global cut pool into linear constraints

presolving:
(round 1, fast)       4394 del vars, 8 del conss, 0 add conss, 32 chg bounds, 0 chg sides, 3 chg coeffs, 0 upgd conss, 135 impls, 44 clqs
(round 2, fast)       4424 del vars, 40 del conss, 0 add conss, 62 chg bounds, 0 chg sides, 3 chg coeffs, 0 upgd conss, 135 impls, 44 clqs
(round 3, fast)       4454 del vars, 40 del conss, 0 add conss, 62 chg bounds, 0 chg sides, 3 chg coeffs, 0 upgd conss, 135 impls, 44 clqs
(round 4, exhaustive) 4454 del vars, 46 del conss, 0 add conss, 62 chg bounds, 5 chg sides, 3 chg coeffs, 0 upgd conss, 135 impls, 44 clqs
(round 5, exhaustive) 4454 del vars, 46 del conss, 0 add conss, 62 chg bounds, 5 chg sides, 3 chg coeffs, 162 upgd conss, 135 impls, 44 clqs
(round 6, medium)     4454 del vars, 56 del conss, 0 add conss, 62 chg bounds, 5 chg sides, 25 chg coeffs, 162 upgd conss, 152 impls, 44 clqs
presolving (7 rounds: 7 fast, 4 medium, 3 exhaustive):
 7050 deleted vars, 1354 deleted constraints, 0 added constraints, 62 tightened bounds, 0 added holes, 5 changed sides, 25 changed coefficients
 152 implications, 44 cliques
presolved problem has 1641 variables (547 bin, 547 int, 0 impl, 547 cont) and 872 constraints
    699 constraints of type <varbound>
     44 constraints of type <setppc>
     99 constraints of type <linear>
     30 constraints of type <nonlinear>
Presolving Time: 0.96
transformed 2/27 original solutions to the transformed problem space

 time | node  | left  |LP iter|LP it/n|mem/heur|mdpt |vars |cons |rows |cuts |sepa|confs|strbr|  dualbound   | primalbound  |  gap   | compl. 
 20.9s|     1 |     0 | 12370 |     - |   132M |   0 |2319 | 872 | 872 |   0 |  0 |   0 |   0 | 5.754435e+06 | 5.754452e+06 |   0.00%| unknown
 20.9s|     1 |     0 | 12482 |     - |   132M |   0 |2319 | 872 | 946 |  74 |  1 |   0 |   0 | 5.754435e+06 | 5.754452e+06 |   0.00%| unknown
 20.9s|     1 |     0 | 12697 |     - |   132M |   0 |2319 | 872 | 990 | 118 |  2 |   0 |   0 | 5.754435e+06 | 5.754452e+06 |   0.00%| unknown
 20.9s|     1 |     0 | 12846 |     - |   133M |   0 |2319 | 872 |1040 | 168 |  3 |   0 |   0 | 5.754435e+06 | 5.754452e+06 |   0.00%| unknown
 20.9s|     1 |     0 | 13002 |     - |   134M |   0 |2319 | 872 |1087 | 215 |  4 |   0 |   0 | 5.754435e+06 | 5.754452e+06 |   0.00%| unknown
 20.9s|     1 |     0 | 13137 |     - |   134M |   0 |2319 | 872 |1139 | 267 |  5 |   0 |   0 | 5.754435e+06 | 5.754452e+06 |   0.00%| unknown
 20.9s|     1 |     0 | 13273 |     - |   134M |   0 |2319 | 872 |1188 | 316 |  6 |   0 |   0 | 5.754435e+06 | 5.754452e+06 |   0.00%| unknown
 20.9s|     1 |     0 | 13380 |     - |   134M |   0 |2319 | 872 |1231 | 359 |  7 |   0 |   0 | 5.754435e+06 | 5.754452e+06 |   0.00%| unknown
 21.0s|     1 |     0 | 13487 |     - |   135M |   0 |2319 | 872 |1262 | 390 |  8 |   0 |   0 | 5.754435e+06 | 5.754452e+06 |   0.00%| unknown
 21.0s|     1 |     0 | 13540 |     - |   135M |   0 |2319 | 872 |1280 | 408 |  9 |   0 |   0 | 5.754435e+06 | 5.754452e+06 |   0.00%| unknown
 21.0s|     1 |     0 | 13631 |     - |   135M |   0 |2319 | 872 |1264 | 426 | 10 |   0 |   0 | 5.754435e+06 | 5.754452e+06 |   0.00%| unknown
 21.0s|     1 |     0 | 13681 |     - |   135M |   0 |2319 | 872 |1281 | 443 | 11 |   0 |   0 | 5.754435e+06 | 5.754452e+06 |   0.00%| unknown
 21.0s|     1 |     0 | 13716 |     - |   135M |   0 |2319 | 872 |1297 | 459 | 12 |   0 |   0 | 5.754435e+06 | 5.754452e+06 |   0.00%| unknown
 21.0s|     1 |     0 | 13767 |     - |   135M |   0 |2319 | 872 |1307 | 469 | 13 |   0 |   0 | 5.754435e+06 | 5.754452e+06 |   0.00%| unknown
 21.0s|     1 |     0 | 13776 |     - |   135M |   0 |2319 | 872 |1317 | 479 | 14 |   0 |   0 | 5.754435e+06 | 5.754452e+06 |   0.00%| unknown
 time | node  | left  |LP iter|LP it/n|mem/heur|mdpt |vars |cons |rows |cuts |sepa|confs|strbr|  dualbound   | primalbound  |  gap   | compl. 
 21.0s|     1 |     0 | 13793 |     - |   136M |   0 |2319 | 872 |1325 | 487 | 15 |   0 |   0 | 5.754435e+06 | 5.754452e+06 |   0.00%| unknown
 21.0s|     1 |     0 | 13800 |     - |   136M |   0 |2319 | 872 |1302 | 493 | 16 |   0 |   0 | 5.754435e+06 | 5.754452e+06 |   0.00%| unknown
 21.1s|     1 |     0 | 13824 |     - |   136M |   0 |2319 | 872 |1307 | 498 | 17 |   0 |   0 | 5.754435e+06 | 5.754452e+06 |   0.00%| unknown
 21.1s|     1 |     0 | 13862 |     - |   136M |   0 |2319 | 872 |1313 | 504 | 18 |   0 |   0 | 5.754435e+06 | 5.754452e+06 |   0.00%| unknown
 21.1s|     1 |     0 | 13886 |     - |   136M |   0 |2319 | 872 |1319 | 510 | 19 |   0 |   0 | 5.754435e+06 | 5.754452e+06 |   0.00%| unknown
 21.1s|     1 |     0 | 13890 |     - |   136M |   0 |2319 | 872 |1322 | 513 | 20 |   0 |   0 | 5.754435e+06 | 5.754452e+06 |   0.00%| unknown
 21.1s|     1 |     0 | 13900 |     - |   136M |   0 |2319 | 872 |1327 | 518 | 21 |   0 |   0 | 5.754435e+06 | 5.754452e+06 |   0.00%| unknown
 21.1s|     1 |     0 | 13912 |     - |   136M |   0 |2319 | 872 |1296 | 523 | 22 |   0 |   0 | 5.754435e+06 | 5.754452e+06 |   0.00%| unknown
 21.1s|     1 |     0 | 13916 |     - |   136M |   0 |2319 | 872 |1297 | 524 | 23 |   0 |   0 | 5.754442e+06 | 5.754452e+06 |   0.00%| unknown
 21.1s|     1 |     0 | 13921 |     - |   136M |   0 |2319 | 872 |1298 | 525 | 24 |   0 |   0 | 5.754446e+06 | 5.754452e+06 |   0.00%| unknown
 21.1s|     1 |     0 | 13923 |     - |   136M |   0 |2319 | 872 |1300 | 527 | 25 |   0 |   0 | 5.754446e+06 | 5.754452e+06 |   0.00%| unknown
 21.1s|     1 |     0 | 13928 |     - |   136M |   0 |2319 | 872 |1301 | 528 | 26 |   0 |   0 | 5.754446e+06 | 5.754452e+06 |   0.00%| unknown
 21.2s|     1 |     0 | 13930 |     - |   136M |   0 |2319 | 872 |1303 | 530 | 27 |   0 |   0 | 5.754446e+06 | 5.754452e+06 |   0.00%| unknown
 21.2s|     1 |     0 | 13934 |     - |   136M |   0 |2319 | 872 |1284 | 531 | 28 |   0 |   0 | 5.754446e+06 | 5.754452e+06 |   0.00%| unknown
 21.2s|     1 |     0 | 13941 |     - |   136M |   0 |2319 | 872 |1286 | 533 | 29 |   0 |   0 | 5.754446e+06 | 5.754452e+06 |   0.00%| unknown
 time | node  | left  |LP iter|LP it/n|mem/heur|mdpt |vars |cons |rows |cuts |sepa|confs|strbr|  dualbound   | primalbound  |  gap   | compl. 
 21.2s|     1 |     0 | 13958 |     - |   136M |   0 |2319 | 872 |1287 | 534 | 30 |   0 |   0 | 5.754449e+06 | 5.754452e+06 |   0.00%| unknown
 21.2s|     1 |     0 | 13982 |     - |   136M |   0 |2319 | 872 |1290 | 537 | 31 |   0 |   0 | 5.754451e+06 | 5.754452e+06 |   0.00%| unknown
 21.2s|     1 |     0 | 13984 |     - |   136M |   0 |2319 | 872 |1291 | 538 | 32 |   0 |   0 | 5.754451e+06 | 5.754452e+06 |   0.00%| unknown
d24.2s|     1 |     0 | 96966 |     - |farkasdi|   0 |2319 | 872 |1291 |   0 | 32 |   0 |   0 | 5.754451e+06 | 5.754452e+06 |   0.00%| unknown
 24.2s|     1 |     0 | 96966 |     - |   137M |   0 |2319 | 872 |1291 | 538 | 32 |   0 |   0 | 5.754451e+06 | 5.754452e+06 |   0.00%| unknown
 24.2s|     1 |     0 | 96982 |     - |   138M |   0 |2319 | 872 |1275 | 554 | 33 |   0 |   0 | 5.754451e+06 | 5.754452e+06 |   0.00%| unknown
 24.3s|     1 |     0 | 96995 |     - |   138M |   0 |2319 | 872 |1275 | 554 | 34 |   0 |   1 | 5.754451e+06 | 5.754452e+06 |   0.00%| unknown
 24.3s|     1 |     0 | 97009 |     - |   138M |   0 |2319 | 872 |1288 | 567 | 35 |   0 |   1 | 5.754451e+06 | 5.754452e+06 |   0.00%| unknown
 24.3s|     1 |     0 | 97009 |     - |   138M |   0 |2319 | 872 |1288 | 567 | 36 |   0 |   2 | 5.754451e+06 | 5.754452e+06 |   0.00%| unknown
 24.3s|     1 |     0 | 97011 |     - |   138M |   0 |2319 | 872 |1290 | 569 | 37 |   0 |   2 | 5.754451e+06 | 5.754452e+06 |   0.00%| unknown
 24.3s|     1 |     0 | 97012 |     - |   138M |   0 |2319 | 872 |1291 | 570 | 38 |   0 |   2 | 5.754451e+06 | 5.754452e+06 |   0.00%| unknown
 24.3s|     1 |     0 | 97013 |     - |   138M |   0 |2319 | 872 |1291 | 570 | 38 |   0 |   6 | 5.754451e+06 | 5.754452e+06 |   0.00%| unknown
 24.3s|     1 |     0 | 97014 |     - |   138M |   0 |2319 | 872 |1277 | 571 | 39 |   0 |   6 | 5.754451e+06 | 5.754452e+06 |   0.00%| unknown
 24.3s|     1 |     0 | 97015 |     - |   138M |   0 |2319 | 872 |1278 | 572 | 40 |   0 |   6 | 5.754452e+06 | 5.754452e+06 |   0.00%| unknown
 24.3s|     1 |     0 | 97015 |     - |   138M |   0 |2319 | 872 |1278 | 572 | 40 |   0 |   6 | 5.754452e+06 | 5.754452e+06 |   0.00%| unknown

SCIP Status        : problem is solved [optimal solution found]
Solving Time (sec) : 24.32
Solving Nodes      : 1 (total of 2 nodes in 2 runs)
Primal Bound       : +5.75445200123125e+06 (30 solutions)
Dual Bound         : +5.75445200123125e+06
Gap                : 0.00 %
Solve Status: optimal
Solve Time: 24.33 seconds
